# Basic setup:
 ISPIN = 2
 LSORBIT = .FALSE.
 ISTART = 1
 ICHARG = 1 
 # not using Hubbard U

# Accuracy controls:
 PREC = Normal
 ISYM = 0
 # Use default energy cutoff for PREC

# Electronic loop controls:
 ALGO = Fast    # Davidson (IALGO = 38) initial phase then RMM-DIIS (IALGO = 48
 EDIFF = 0.0001
 ENCUT = 400
 NELM = 200
 NELMIN = 5
 NELMDL = -10
 MAXMIX = -100 
 ISMEAR = 0        # 1st order Methfessel-Paxton method
 SIGMA = 0.05
 # NBANDS - using default

# OP GEOM
 IBRION = -1    # Conjugate gradients
 NSW = 0
 ISIF = 2      # Ions
 EDIFFG = -0.02
 MAGMOM = 5*2.0 4*-2.0 9*0.0 
 LREAL = Auto
 NUPDOWN = 1 

# Properties:
 LCHARG = .TRUE.
 LWAVE = .TRUE.
 LELF = .FALSE.
 LVTOT = .FALSE.
 LVHAR = .TRUE.
 GGA = PE 
 LDAU = .FALSE.
 IVDW = 12

# HUBBARD
 LDAUU = 7.00 0.00 
 LDAUJ = 0.00 0.00 
 LDAUL = 2    -1   
 LDAUPRINT = 1  
 LMAXMIX = 4
 LASPH = .TRUE. #non-spherical contributions from the gradient corrections inside the PAW spheres will be included IMPORTANT FOR LDA+U



