%chk=NiO-Glicina-PBE.chk
%nprocshared=16
%mem=6GB
# opt freq=noraman upbepbe/gen empiricaldispersion=gd3bj pseudo=read
scf=(intrep,novaracc,maxcycles=1000,yqc)

NiO-Glicina-PBE

0 7
 C                 13.85100000   13.69300000   12.54600000
 C                 13.99300000   15.17500000   12.83800000
 H                 15.79400000   13.12500000   13.09000000
 H                 14.67400000   11.90600000   13.20700000
 H                 12.84200000   13.39600000   12.84700000
 H                 13.98900000   13.50300000   11.46800000
 H                 15.28300000   16.46900000   13.34200000
 N                 14.82100000   12.90800000   13.34700000
 Ni                17.04500000   16.05500000   17.80600000
 Ni                16.59600000   17.05500000   15.57100000
 Ni                17.23100000   14.27600000   15.99800000
 Ni                15.07100000   17.50100000   17.99500000
 Ni                15.06200000   14.50300000   17.68700000
 Ni                13.48100000   16.96400000   15.32300000
 Ni                14.82600000   13.19400000   15.32500000
 Ni                12.90200000   16.43400000   17.78200000
 Ni                12.62300000   14.70400000   16.19000000
 O                 16.72500000   17.78000000   17.39200000
 O                 17.95500000   15.93900000   16.15300000
 O                 16.80800000   14.23200000   17.84700000
 O                 15.09900000   17.37000000   14.71800000
 O                 16.54400000   12.84500000   15.34900000
 O                 13.07800000   13.19700000   15.48500000
 O                 13.59000000   17.61600000   18.87400000
 O                 13.32000000   14.60400000   17.88900000
 O                 11.97300000   16.45200000   16.14300000
 O                 13.03400000   15.88000000   13.15300000
 O                 15.25500000   15.60700000   12.78700000

O C N H 0
cc-pvdz
****
Ni 0
LANL2DZ
****

Ni 0
LANL2DZ




