Cu O                                    
   1.00000000000000     
    28.0000000000000000    0.0000000000000000    0.0000000000000000
     0.0000000000000000   28.0000000000000000    0.0000000000000000
     0.0000000000000000    0.0000000000000000   28.0000000000000000
   Cu   O 
    24    24
Selective dynamics
Direct
  0.3886369206412825  0.4580337787247853  0.5871615340322385   T   T   T
  0.3487822747326824  0.4068621565663588  0.5190432943703177   T   T   T
  0.3827847335518184  0.5433738022760769  0.5072155465952696   T   T   T
  0.3785183913461510  0.4700176589517128  0.4397465072353183   T   T   T
  0.4180945957269478  0.5607730143255705  0.4250537482420526   T   T   T
  0.4547746375941498  0.4014554529695043  0.5898395903802809   T   T   T
  0.4366328544246550  0.5504011027754936  0.5967163149339666   T   T   T
  0.4259566701795534  0.3788914727375222  0.4940344892369741   T   T   T
  0.4632740456656387  0.4710051466480396  0.4948461531904210   T   T   T
  0.4599229363312982  0.5951460071745022  0.5011988638572280   T   T   T
  0.4719780499221884  0.4137070167591628  0.4009187328896628   T   T   T
  0.4856144217806884  0.5141269187495140  0.3740333693574268   T   T   T
  0.5160366057204366  0.4851755218123124  0.6233903287008353   T   T   T
  0.5306114121972668  0.5852144229971393  0.5956559285030129   T   T   T
  0.5407565802350381  0.4039546489832451  0.4955292480146719   T   T   T
  0.5418196449959964  0.5305571565279976  0.5000000067740018   F   F   F
  0.5731141995001782  0.6229710438902125  0.5047419360568602   T   T   T
  0.5643209220188409  0.4492161940560428  0.4007738736080095   T   T   T
  0.5473517287789019  0.6001412165077212  0.4081617618440191   T   T   T
  0.5806097185756920  0.4389818274737731  0.5715111047065662   T   T   T
  0.6216722006859314  0.5334191672719616  0.5612612704991180   T   T   T
  0.6176223084600433  0.4581555627582345  0.4906114045681396   T   T   T
  0.6482364568474136  0.5913392558642127  0.4793693888686422   T   T   T
  0.6114278430200990  0.5398832998496002  0.4068885869703990   T   T   T
  0.3337721714141517  0.4306235804529623  0.4625625443810699   T   T   T
  0.3881849703865924  0.5128578489583052  0.6196354495530649   T   T   T
  0.3904434494149021  0.3872650850337363  0.5659227948681581   T   T   T
  0.4004046531989499  0.4806380694743395  0.5206440757870821   T   T   T
  0.4089409602917466  0.5899077949975207  0.5467189909742558   T   T   T
  0.4381325994117125  0.3697905564104416  0.4325131961154161   T   T   T
  0.4254155453190850  0.4997626206185481  0.4042749182996224   T   T   T
  0.4159868292488617  0.6164052818040161  0.4554449197644282   T   T   T
  0.4801923431798863  0.4347453563347261  0.6371056162190278   T   T   T
  0.4931117450182263  0.5487915053944565  0.6353771819692536   T   T   T
  0.4812286902291845  0.4032301564043190  0.5272257333316189   T   T   T
  0.4931560355363974  0.5525631352570920  0.5420884142071912   T   T   T
  0.5098171555336419  0.4471832813853108  0.4533123196503053   T   T   T
  0.5179489184014513  0.5998158249361000  0.4685261093253759   T   T   T
  0.5081430386659248  0.4525114313083403  0.3608524008776677   T   T   T
  0.5226226231095036  0.5651743423202974  0.3611073035585166   T   T   T
  0.5806062573445355  0.3824468504233523  0.5436176959696215   T   T   T
  0.5766911913406257  0.4992737020581877  0.5940884485027609   T   T   T
  0.5641757736301601  0.6308746464077926  0.5667727820185610   T   T   T
  0.5933982383357056  0.4103008560180976  0.4529036258116684   T   T   T
  0.6054151913172228  0.5211433115529331  0.4747912747027704   T   T   T
  0.6107052022661932  0.6153862836270609  0.4311072763638764   T   T   T
  0.6136550536798310  0.4841957690851925  0.3761641540539162   T   T   T
  0.6662801036368077  0.5720968809615542  0.5367979627426638   T   T   T
