Cu O                                    
   1.00000000000000     
    26.0000000000000000    0.0000000000000000    0.0000000000000000
     0.0000000000000000   26.0000000000000000    0.0000000000000000
     0.0000000000000000    0.0000000000000000   26.0000000000000000
   Cu   O 
     9     9
Selective dynamics
Direct
  0.4294195689471235  0.4775808385895209  0.4771209530626797   T   T   T
  0.4689198979105341  0.4617120863678365  0.3848811257288677   T   T   T
  0.5290048696391551  0.4515392701449416  0.4697965738774823   T   T   T
  0.4563467097732482  0.5620738592528629  0.3599019462805752   T   T   T
  0.4168059243647110  0.5776877794033776  0.4483964316573863   T   T   T
  0.5385549843633654  0.5126280955612359  0.3414396659284083   T   T   T
  0.5266057692309971  0.5439923076920010  0.5000000000000000   F   F   F
  0.5112185686333368  0.6112944249947481  0.4274789601145868   T   T   T
  0.5952925813052736  0.5280958456230015  0.4280071874073038   T   T   T
  0.6028709616841758  0.5229617505245581  0.3606827060973476   T   T   T
  0.4680844879305514  0.4241568867018310  0.4443710707384311   T   T   T
  0.3811758436585160  0.5256903018183476  0.4752123509472132   T   T   T
  0.4704095542507701  0.5014308495129112  0.3261967650159825   T   T   T
  0.4866975917256033  0.4885202322583741  0.5216548784225413   T   T   T
  0.4465841812573748  0.6210189571247168  0.3978594830750635   T   T   T
  0.4753176432057721  0.5929960854610825  0.4930043773663583   T   T   T
  0.5809211946594089  0.4957714236474367  0.4909524901331643   T   T   T
  0.5695749831474796  0.5887633557055015  0.4614577422055038   T   T   T
