C H N Ni O
1.0
 30.000000000000   0.000000000000   0.000000000000
  0.000000000000  30.000000000000   0.000000000000
  0.000000000000   0.000000000000  30.000000000000
C H N Ni O
  2   5   1   9  11
Selective dynamics
Direct
  0.470991492103   0.459087855036   0.420216521320  T T T
  0.482336079911   0.507789123240   0.426767786053  T T T
  0.535254329277   0.435273173196   0.420223991552  T T T
  0.497245864933   0.396599850646   0.428575825075  T T T
  0.440023063699   0.453028483842   0.438725625781  T T T
  0.462449928596   0.456147102057   0.384276761376  T T T
  0.531037495094   0.547730131661   0.427922970530  T T T
  0.505728073780   0.428719539306   0.435747566153  T T T
  0.583384765317   0.535293841414   0.585099068707  T T T
  0.555537024596   0.570743673746   0.511676099292  T T T
  0.570504968252   0.467012015037   0.529685814009  T T T
  0.509519242939   0.603400149354   0.594156668640  T T T
  0.498623723208   0.478078218221   0.594931461458  T T T
  0.449361879702   0.565472887851   0.510762757186  F F F
  0.479848243868   0.421622667257   0.517204021354  T T T
  0.427858372788   0.551307710854   0.599496971032  T T T
  0.412110482274   0.478764880413   0.547226789046  T T T
  0.563449506236   0.592966581950   0.574317236590  T T T
  0.594186470827   0.523661476606   0.523244020987  T T T
  0.557811336113   0.479570568765   0.593213629160  T T T
  0.499784168925   0.582806431118   0.494295601350  T T T
  0.535563715410   0.423340843989   0.511040649222  T T T
  0.424179978213   0.425285490624   0.524782469921  T T T
  0.457425610535   0.599960595040   0.615723238624  T T T
  0.441084653100   0.489608547611   0.602890614164  T T T
  0.405813529173   0.540482098581   0.539721030250  T T T
  0.455120977238   0.537527189694   0.431692467708  T T T
  0.527145430335   0.515504304785   0.424370176204  T T T
